data/instances/vrp_files/train_9.vrp
NAME : 9
COMMENT : Generated instance No. 9
TYPE : CVRP
DIMENSION : 21
EDGE_WEIGHT_TYPE : EUC_2D
CAPACITY : 30
NODE_COORD_SECTION
 1 297 523
 2 913 585
 3 726 757
 4 377 241
 5 205 251
 6 274 207
 7 878 756
 8 46 268
 9 22 498
 10 476 831
 11 307 816
 12 967 88
 13 791 589
 14 480 420
 15 784 639
 16 805 903
 17 617 980
 18 608 636
 19 554 91
 20 726 547
 21 450 910
DEMAND_SECTION
1 0
2 1
3 5
4 4
5 10
6 8
7 1
8 10
9 1
10 4
11 8
12 5
13 2
14 6
15 5
16 2
17 3
18 9
19 7
20 7
21 6
DEPOT_SECTION
 1
 -1
EOF